\ENCODING=ISO-8859-1
\Problem name: IP_model_allocation

Minimize
 obj: _e_1_1_1#120 + _e_1_1_2#121 + _e_1_2_1#122 + _e_1_2_2#123 + _e_1_3_1#124
      + _e_1_3_2#125 + _e_1_4_1#126 + _e_1_4_2#127 + _e_1_5_1#128
      + _e_1_5_2#129 + _e_2_1_1#130 + _e_2_1_2#131 + _e_2_2_1#132
      + _e_2_2_2#133 + _e_2_3_1#134 + _e_2_3_2#135 + _e_2_4_1#136
      + _e_2_4_2#137 + _e_2_5_1#138 + _e_2_5_2#139
Subject To
 c1_1_1_1_1: x_1_1_1_1#0 - 10000 y_1_1_1_1#40 <= 0
 c1_1_1_1_2: x_1_1_1_2#1 - 10000 y_1_1_1_2#41 <= 0
 c1_1_1_2_1: x_1_1_2_1#2 - 10000 y_1_1_2_1#42 <= 0
 c1_1_1_2_2: x_1_1_2_2#3 - 10000 y_1_1_2_2#43 <= 0
 c1_1_1_3_1: x_1_1_3_1#4 - 10000 y_1_1_3_1#44 <= 0
 c1_1_1_3_2: x_1_1_3_2#5 - 10000 y_1_1_3_2#45 <= 0
 c1_1_1_4_1: x_1_1_4_1#6 - 10000 y_1_1_4_1#46 <= 0
 c1_1_1_4_2: x_1_1_4_2#7 - 10000 y_1_1_4_2#47 <= 0
 c1_1_1_5_1: x_1_1_5_1#8 - 10000 y_1_1_5_1#48 <= 0
 c1_1_1_5_2: x_1_1_5_2#9 - 10000 y_1_1_5_2#49 <= 0
 c1_1_2_1_1: x_1_2_1_1#10 - 10000 y_1_2_1_1#50 <= 0
 c1_1_2_1_2: x_1_2_1_2#11 - 10000 y_1_2_1_2#51 <= 0
 c1_1_2_2_1: x_1_2_2_1#12 - 10000 y_1_2_2_1#52 <= 0
 c1_1_2_2_2: x_1_2_2_2#13 - 10000 y_1_2_2_2#53 <= 0
 c1_1_2_3_1: x_1_2_3_1#14 - 10000 y_1_2_3_1#54 <= 0
 c1_1_2_3_2: x_1_2_3_2#15 - 10000 y_1_2_3_2#55 <= 0
 c1_1_2_4_1: x_1_2_4_1#16 - 10000 y_1_2_4_1#56 <= 0
 c1_1_2_4_2: x_1_2_4_2#17 - 10000 y_1_2_4_2#57 <= 0
 c1_1_2_5_1: x_1_2_5_1#18 - 10000 y_1_2_5_1#58 <= 0
 c1_1_2_5_2: x_1_2_5_2#19 - 10000 y_1_2_5_2#59 <= 0
 c1_2_1_1_1: x_2_1_1_1#20 - 10000 y_2_1_1_1#60 <= 0
 c1_2_1_1_2: x_2_1_1_2#21 - 10000 y_2_1_1_2#61 <= 0
 c1_2_1_2_1: x_2_1_2_1#22 - 10000 y_2_1_2_1#62 <= 0
 c1_2_1_2_2: x_2_1_2_2#23 - 10000 y_2_1_2_2#63 <= 0
 c1_2_1_3_1: x_2_1_3_1#24 - 10000 y_2_1_3_1#64 <= 0
 c1_2_1_3_2: x_2_1_3_2#25 - 10000 y_2_1_3_2#65 <= 0
 c1_2_1_4_1: x_2_1_4_1#26 - 10000 y_2_1_4_1#66 <= 0
 c1_2_1_4_2: x_2_1_4_2#27 - 10000 y_2_1_4_2#67 <= 0
 c1_2_1_5_1: x_2_1_5_1#28 - 10000 y_2_1_5_1#68 <= 0
 c1_2_1_5_2: x_2_1_5_2#29 - 10000 y_2_1_5_2#69 <= 0
 c1_2_2_1_1: x_2_2_1_1#30 - 10000 y_2_2_1_1#70 <= 0
 c1_2_2_1_2: x_2_2_1_2#31 - 10000 y_2_2_1_2#71 <= 0
 c1_2_2_2_1: x_2_2_2_1#32 - 10000 y_2_2_2_1#72 <= 0
 c1_2_2_2_2: x_2_2_2_2#33 - 10000 y_2_2_2_2#73 <= 0
 c1_2_2_3_1: x_2_2_3_1#34 - 10000 y_2_2_3_1#74 <= 0
 c1_2_2_3_2: x_2_2_3_2#35 - 10000 y_2_2_3_2#75 <= 0
 c1_2_2_4_1: x_2_2_4_1#36 - 10000 y_2_2_4_1#76 <= 0
 c1_2_2_4_2: x_2_2_4_2#37 - 10000 y_2_2_4_2#77 <= 0
 c1_2_2_5_1: x_2_2_5_1#38 - 10000 y_2_2_5_1#78 <= 0
 c1_2_2_5_2: x_2_2_5_2#39 - 10000 y_2_2_5_2#79 <= 0
 c2_1_1:     x_1_1_1_1#0 + x_1_1_1_2#1 + x_1_1_2_1#2 + x_1_1_2_2#3
             + x_1_1_3_1#4 + x_1_1_3_2#5 + x_1_1_4_1#6 + x_1_1_4_2#7
             + x_1_1_5_1#8 + x_1_1_5_2#9  = 8
 c2_1_2:     x_1_2_1_1#10 + x_1_2_1_2#11 + x_1_2_2_1#12 + x_1_2_2_2#13
             + x_1_2_3_1#14 + x_1_2_3_2#15 + x_1_2_4_1#16 + x_1_2_4_2#17
             + x_1_2_5_1#18 + x_1_2_5_2#19  = 6
 c2_2_1:     x_2_1_1_1#20 + x_2_1_1_2#21 + x_2_1_2_1#22 + x_2_1_2_2#23
             + x_2_1_3_1#24 + x_2_1_3_2#25 + x_2_1_4_1#26 + x_2_1_4_2#27
             + x_2_1_5_1#28 + x_2_1_5_2#29  = 17
 c2_2_2:     x_2_2_1_1#30 + x_2_2_1_2#31 + x_2_2_2_1#32 + x_2_2_2_2#33
             + x_2_2_3_1#34 + x_2_2_3_2#35 + x_2_2_4_1#36 + x_2_2_4_2#37
             + x_2_2_5_1#38 + x_2_2_5_2#39  = 23
 c3_1:       y_1_1_1_1#40 + y_1_1_1_2#41 + y_1_1_2_1#42 + y_1_1_2_2#43
             + y_1_1_3_1#44 + y_1_1_3_2#45 + y_1_1_4_1#46 + y_1_1_4_2#47
             + y_1_1_5_1#48 + y_1_1_5_2#49 + y_2_1_1_1#60 + y_2_1_1_2#61
             + y_2_1_2_1#62 + y_2_1_2_2#63 + y_2_1_3_1#64 + y_2_1_3_2#65
             + y_2_1_4_1#66 + y_2_1_4_2#67 + y_2_1_5_1#68 + y_2_1_5_2#69 <= 2
 c3_2:       y_1_2_1_1#50 + y_1_2_1_2#51 + y_1_2_2_1#52 + y_1_2_2_2#53
             + y_1_2_3_1#54 + y_1_2_3_2#55 + y_1_2_4_1#56 + y_1_2_4_2#57
             + y_1_2_5_1#58 + y_1_2_5_2#59 + y_2_2_1_1#70 + y_2_2_1_2#71
             + y_2_2_2_1#72 + y_2_2_2_2#73 + y_2_2_3_1#74 + y_2_2_3_2#75
             + y_2_2_4_1#76 + y_2_2_4_2#77 + y_2_2_5_1#78 + y_2_2_5_2#79 <= 2
 c4_1_1_1_1: y_1_1_1_1#40 - z_1_1_1_1#80 <= 0
 c4_1_1_1_2: y_1_1_1_2#41 - z_1_1_1_2#81 <= 0
 c4_1_1_2_1: y_1_1_2_1#42 - z_1_1_2_1#82 <= 0
 c4_1_1_2_2: y_1_1_2_2#43 - z_1_1_2_2#83 <= 0
 c4_1_1_3_1: y_1_1_3_1#44 - z_1_1_3_1#84 <= 0
 c4_1_1_3_2: y_1_1_3_2#45 - z_1_1_3_2#85 <= 0
 c4_1_1_4_1: y_1_1_4_1#46 - z_1_1_4_1#86 <= 0
 c4_1_1_4_2: y_1_1_4_2#47 - z_1_1_4_2#87 <= 0
 c4_1_1_5_1: y_1_1_5_1#48 - z_1_1_5_1#88 <= 0
 c4_1_1_5_2: y_1_1_5_2#49 - z_1_1_5_2#89 <= 1
 c4_1_2_1_1: y_1_2_1_1#50 - z_1_2_1_1#90 <= 0
 c4_1_2_1_2: y_1_2_1_2#51 - z_1_2_1_2#91 <= 0
 c4_1_2_2_1: y_1_2_2_1#52 - z_1_2_2_1#92 <= 0
 c4_1_2_2_2: y_1_2_2_2#53 - z_1_2_2_2#93 <= 0
 c4_1_2_3_1: y_1_2_3_1#54 - z_1_2_3_1#94 <= 0
 c4_1_2_3_2: y_1_2_3_2#55 - z_1_2_3_2#95 <= 0
 c4_1_2_4_1: y_1_2_4_1#56 - z_1_2_4_1#96 <= 0
 c4_1_2_4_2: y_1_2_4_2#57 - z_1_2_4_2#97 <= 1
 c4_1_2_5_1: y_1_2_5_1#58 - z_1_2_5_1#98 <= 0
 c4_1_2_5_2: y_1_2_5_2#59 - z_1_2_5_2#99 <= 0
 c4_2_1_1_1: y_2_1_1_1#60 - z_2_1_1_1#100 <= 0
 c4_2_1_1_2: y_2_1_1_2#61 - z_2_1_1_2#101 <= 0
 c4_2_1_2_1: y_2_1_2_1#62 - z_2_1_2_1#102 <= 0
 c4_2_1_2_2: y_2_1_2_2#63 - z_2_1_2_2#103 <= 0
 c4_2_1_3_1: y_2_1_3_1#64 - z_2_1_3_1#104 <= 0
 c4_2_1_3_2: y_2_1_3_2#65 - z_2_1_3_2#105 <= 0
 c4_2_1_4_1: y_2_1_4_1#66 - z_2_1_4_1#106 <= 0
 c4_2_1_4_2: y_2_1_4_2#67 - z_2_1_4_2#107 <= 0
 c4_2_1_5_1: y_2_1_5_1#68 - z_2_1_5_1#108 <= 1
 c4_2_1_5_2: y_2_1_5_2#69 - z_2_1_5_2#109 <= 0
 c4_2_2_1_1: y_2_2_1_1#70 - z_2_2_1_1#110 <= 0
 c4_2_2_1_2: y_2_2_1_2#71 - z_2_2_1_2#111 <= 0
 c4_2_2_2_1: y_2_2_2_1#72 - z_2_2_2_1#112 <= 0
 c4_2_2_2_2: y_2_2_2_2#73 - z_2_2_2_2#113 <= 0
 c4_2_2_3_1: y_2_2_3_1#74 - z_2_2_3_1#114 <= 0
 c4_2_2_3_2: y_2_2_3_2#75 - z_2_2_3_2#115 <= 0
 c4_2_2_4_1: y_2_2_4_1#76 - z_2_2_4_1#116 <= 1
 c4_2_2_4_2: y_2_2_4_2#77 - z_2_2_4_2#117 <= 0
 c4_2_2_5_1: y_2_2_5_1#78 - z_2_2_5_1#118 <= 0
 c4_2_2_5_2: y_2_2_5_2#79 - z_2_2_5_2#119 <= 0
 c5_1_1_1_1: y_1_1_1_1#40 + z_1_1_1_1#80 >= 0
 c5_1_1_1_2: y_1_1_1_2#41 + z_1_1_1_2#81 >= 0
 c5_1_1_2_1: y_1_1_2_1#42 + z_1_1_2_1#82 >= 0
 c5_1_1_2_2: y_1_1_2_2#43 + z_1_1_2_2#83 >= 0
 c5_1_1_3_1: y_1_1_3_1#44 + z_1_1_3_1#84 >= 0
 c5_1_1_3_2: y_1_1_3_2#45 + z_1_1_3_2#85 >= 0
 c5_1_1_4_1: y_1_1_4_1#46 + z_1_1_4_1#86 >= 0
 c5_1_1_4_2: y_1_1_4_2#47 + z_1_1_4_2#87 >= 0
 c5_1_1_5_1: y_1_1_5_1#48 + z_1_1_5_1#88 >= 0
 c5_1_1_5_2: y_1_1_5_2#49 + z_1_1_5_2#89 >= 1
 c5_1_2_1_1: y_1_2_1_1#50 + z_1_2_1_1#90 >= 0
 c5_1_2_1_2: y_1_2_1_2#51 + z_1_2_1_2#91 >= 0
 c5_1_2_2_1: y_1_2_2_1#52 + z_1_2_2_1#92 >= 0
 c5_1_2_2_2: y_1_2_2_2#53 + z_1_2_2_2#93 >= 0
 c5_1_2_3_1: y_1_2_3_1#54 + z_1_2_3_1#94 >= 0
 c5_1_2_3_2: y_1_2_3_2#55 + z_1_2_3_2#95 >= 0
 c5_1_2_4_1: y_1_2_4_1#56 + z_1_2_4_1#96 >= 0
 c5_1_2_4_2: y_1_2_4_2#57 + z_1_2_4_2#97 >= 1
 c5_1_2_5_1: y_1_2_5_1#58 + z_1_2_5_1#98 >= 0
 c5_1_2_5_2: y_1_2_5_2#59 + z_1_2_5_2#99 >= 0
 c5_2_1_1_1: y_2_1_1_1#60 + z_2_1_1_1#100 >= 0
 c5_2_1_1_2: y_2_1_1_2#61 + z_2_1_1_2#101 >= 0
 c5_2_1_2_1: y_2_1_2_1#62 + z_2_1_2_1#102 >= 0
 c5_2_1_2_2: y_2_1_2_2#63 + z_2_1_2_2#103 >= 0
 c5_2_1_3_1: y_2_1_3_1#64 + z_2_1_3_1#104 >= 0
 c5_2_1_3_2: y_2_1_3_2#65 + z_2_1_3_2#105 >= 0
 c5_2_1_4_1: y_2_1_4_1#66 + z_2_1_4_1#106 >= 0
 c5_2_1_4_2: y_2_1_4_2#67 + z_2_1_4_2#107 >= 0
 c5_2_1_5_1: y_2_1_5_1#68 + z_2_1_5_1#108 >= 1
 c5_2_1_5_2: y_2_1_5_2#69 + z_2_1_5_2#109 >= 0
 c5_2_2_1_1: y_2_2_1_1#70 + z_2_2_1_1#110 >= 0
 c5_2_2_1_2: y_2_2_1_2#71 + z_2_2_1_2#111 >= 0
 c5_2_2_2_1: y_2_2_2_1#72 + z_2_2_2_1#112 >= 0
 c5_2_2_2_2: y_2_2_2_2#73 + z_2_2_2_2#113 >= 0
 c5_2_2_3_1: y_2_2_3_1#74 + z_2_2_3_1#114 >= 0
 c5_2_2_3_2: y_2_2_3_2#75 + z_2_2_3_2#115 >= 0
 c5_2_2_4_1: y_2_2_4_1#76 + z_2_2_4_1#116 >= 1
 c5_2_2_4_2: y_2_2_4_2#77 + z_2_2_4_2#117 >= 0
 c5_2_2_5_1: y_2_2_5_1#78 + z_2_2_5_1#118 >= 0
 c5_2_2_5_2: y_2_2_5_2#79 + z_2_2_5_2#119 >= 0
 c6:         z_1_1_1_1#80 + z_1_1_1_2#81 + z_1_1_2_1#82 + z_1_1_2_2#83
             + z_1_1_3_1#84 + z_1_1_3_2#85 + z_1_1_4_1#86 + z_1_1_4_2#87
             + z_1_1_5_1#88 + z_1_1_5_2#89 + z_1_2_1_1#90 + z_1_2_1_2#91
             + z_1_2_2_1#92 + z_1_2_2_2#93 + z_1_2_3_1#94 + z_1_2_3_2#95
             + z_1_2_4_1#96 + z_1_2_4_2#97 + z_1_2_5_1#98 + z_1_2_5_2#99
             + z_2_1_1_1#100 + z_2_1_1_2#101 + z_2_1_2_1#102 + z_2_1_2_2#103
             + z_2_1_3_1#104 + z_2_1_3_2#105 + z_2_1_4_1#106 + z_2_1_4_2#107
             + z_2_1_5_1#108 + z_2_1_5_2#109 + z_2_2_1_1#110 + z_2_2_1_2#111
             + z_2_2_2_1#112 + z_2_2_2_2#113 + z_2_2_3_1#114 + z_2_2_3_2#115
             + z_2_2_4_1#116 + z_2_2_4_2#117 + z_2_2_5_1#118 + z_2_2_5_2#119
             <= 0
 c7_1_1_1:   x_1_1_1_1#0 + x_1_2_1_1#10 - _e_1_1_1#120 <= 0
 c7_1_1_2:   x_1_1_1_2#1 + x_1_2_1_2#11 - _e_1_1_2#121 <= 2.8
 c7_1_2_1:   x_1_1_2_1#2 + x_1_2_2_1#12 - _e_1_2_1#122 <= 0
 c7_1_2_2:   x_1_1_2_2#3 + x_1_2_2_2#13 - _e_1_2_2#123 <= 2.8
 c7_1_3_1:   x_1_1_3_1#4 + x_1_2_3_1#14 - _e_1_3_1#124 <= 0
 c7_1_3_2:   x_1_1_3_2#5 + x_1_2_3_2#15 - _e_1_3_2#125 <= 2.8
 c7_1_4_1:   x_1_1_4_1#6 + x_1_2_4_1#16 - _e_1_4_1#126 <= 0
 c7_1_4_2:   x_1_1_4_2#7 + x_1_2_4_2#17 - _e_1_4_2#127 <= 2.8
 c7_1_5_1:   x_1_1_5_1#8 + x_1_2_5_1#18 - _e_1_5_1#128 <= 0
 c7_1_5_2:   x_1_1_5_2#9 + x_1_2_5_2#19 - _e_1_5_2#129 <= 2.8
 c7_2_1_1:   x_2_1_1_1#20 + x_2_2_1_1#30 - _e_2_1_1#130 <= 8
 c7_2_1_2:   x_2_1_1_2#21 + x_2_2_1_2#31 - _e_2_1_2#131 <= 0
 c7_2_2_1:   x_2_1_2_1#22 + x_2_2_2_1#32 - _e_2_2_1#132 <= 8
 c7_2_2_2:   x_2_1_2_2#23 + x_2_2_2_2#33 - _e_2_2_2#133 <= 0
 c7_2_3_1:   x_2_1_3_1#24 + x_2_2_3_1#34 - _e_2_3_1#134 <= 8
 c7_2_3_2:   x_2_1_3_2#25 + x_2_2_3_2#35 - _e_2_3_2#135 <= 0
 c7_2_4_1:   x_2_1_4_1#26 + x_2_2_4_1#36 - _e_2_4_1#136 <= 8
 c7_2_4_2:   x_2_1_4_2#27 + x_2_2_4_2#37 - _e_2_4_2#137 <= 0
 c7_2_5_1:   x_2_1_5_1#28 + x_2_2_5_1#38 - _e_2_5_1#138 <= 8
 c7_2_5_2:   x_2_1_5_2#29 + x_2_2_5_2#39 - _e_2_5_2#139 <= 0
 c8_1_1_1:   x_1_1_1_1#0 + x_1_2_1_1#10 + _e_1_1_1#120 >= 0
 c8_1_1_2:   x_1_1_1_2#1 + x_1_2_1_2#11 + _e_1_1_2#121 >= 2.8
 c8_1_2_1:   x_1_1_2_1#2 + x_1_2_2_1#12 + _e_1_2_1#122 >= 0
 c8_1_2_2:   x_1_1_2_2#3 + x_1_2_2_2#13 + _e_1_2_2#123 >= 2.8
 c8_1_3_1:   x_1_1_3_1#4 + x_1_2_3_1#14 + _e_1_3_1#124 >= 0
 c8_1_3_2:   x_1_1_3_2#5 + x_1_2_3_2#15 + _e_1_3_2#125 >= 2.8
 c8_1_4_1:   x_1_1_4_1#6 + x_1_2_4_1#16 + _e_1_4_1#126 >= 0
 c8_1_4_2:   x_1_1_4_2#7 + x_1_2_4_2#17 + _e_1_4_2#127 >= 2.8
 c8_1_5_1:   x_1_1_5_1#8 + x_1_2_5_1#18 + _e_1_5_1#128 >= 0
 c8_1_5_2:   x_1_1_5_2#9 + x_1_2_5_2#19 + _e_1_5_2#129 >= 2.8
 c8_2_1_1:   x_2_1_1_1#20 + x_2_2_1_1#30 + _e_2_1_1#130 >= 8
 c8_2_1_2:   x_2_1_1_2#21 + x_2_2_1_2#31 + _e_2_1_2#131 >= 0
 c8_2_2_1:   x_2_1_2_1#22 + x_2_2_2_1#32 + _e_2_2_1#132 >= 8
 c8_2_2_2:   x_2_1_2_2#23 + x_2_2_2_2#33 + _e_2_2_2#133 >= 0
 c8_2_3_1:   x_2_1_3_1#24 + x_2_2_3_1#34 + _e_2_3_1#134 >= 8
 c8_2_3_2:   x_2_1_3_2#25 + x_2_2_3_2#35 + _e_2_3_2#135 >= 0
 c8_2_4_1:   x_2_1_4_1#26 + x_2_2_4_1#36 + _e_2_4_1#136 >= 8
 c8_2_4_2:   x_2_1_4_2#27 + x_2_2_4_2#37 + _e_2_4_2#137 >= 0
 c8_2_5_1:   x_2_1_5_1#28 + x_2_2_5_1#38 + _e_2_5_1#138 >= 8
 c8_2_5_2:   x_2_1_5_2#29 + x_2_2_5_2#39 + _e_2_5_2#139 >= 0
 c9_1_1:     y_1_1_1_1#40 - y_2_1_1_2#61  = 0
 c9_1_2:     y_1_1_2_1#42 - y_2_1_2_2#63  = 0
 c9_1_3:     y_1_1_3_1#44 - y_2_1_3_2#65  = 0
 c9_1_4:     y_1_1_4_1#46 - y_2_1_4_2#67  = 0
 c9_1_5:     y_1_1_5_1#48 - y_2_1_5_2#69  = 0
 c9_2_1:     y_1_2_1_1#50 - y_2_2_1_2#71  = 0
 c9_2_2:     y_1_2_2_1#52 - y_2_2_2_2#73  = 0
 c9_2_3:     y_1_2_3_1#54 - y_2_2_3_2#75  = 0
 c9_2_4:     y_1_2_4_1#56 - y_2_2_4_2#77  = 0
 c9_2_5:     y_1_2_5_1#58 - y_2_2_5_2#79  = 0
 c10_1_1:    y_2_1_1_1#60  = 0
 c10_1_2:    y_2_1_2_1#62  = 0
 c10_1_3:    y_2_1_3_1#64  = 0
 c10_1_4:    y_2_1_4_1#66  = 0
 c10_1_5:    y_2_1_5_1#68  = 0
 c10_2_1:    y_2_2_1_1#70  = 0
 c10_2_2:    y_2_2_2_1#72  = 0
 c10_2_3:    y_2_2_3_1#74  = 0
 c10_2_4:    y_2_2_4_1#76  = 0
 c10_2_5:    y_2_2_5_1#78  = 0
 c11_1_1:    y_1_1_1_2#41  = 0
 c11_1_2:    y_1_1_2_2#43  = 0
 c11_1_3:    y_1_1_3_2#45  = 0
 c11_1_4:    y_1_1_4_2#47  = 0
 c11_1_5:    y_1_1_5_2#49  = 0
 c11_2_1:    y_1_2_1_2#51  = 0
 c11_2_2:    y_1_2_2_2#53  = 0
 c11_2_3:    y_1_2_3_2#55  = 0
 c11_2_4:    y_1_2_4_2#57  = 0
 c11_2_5:    y_1_2_5_2#59  = 0
Bounds
 0 <= y_1_1_1_1#40 <= 1
 0 <= y_1_1_1_2#41 <= 1
 0 <= y_1_1_2_1#42 <= 1
 0 <= y_1_1_2_2#43 <= 1
 0 <= y_1_1_3_1#44 <= 1
 0 <= y_1_1_3_2#45 <= 1
 0 <= y_1_1_4_1#46 <= 1
 0 <= y_1_1_4_2#47 <= 1
 0 <= y_1_1_5_1#48 <= 1
 0 <= y_1_1_5_2#49 <= 1
 0 <= y_1_2_1_1#50 <= 1
 0 <= y_1_2_1_2#51 <= 1
 0 <= y_1_2_2_1#52 <= 1
 0 <= y_1_2_2_2#53 <= 1
 0 <= y_1_2_3_1#54 <= 1
 0 <= y_1_2_3_2#55 <= 1
 0 <= y_1_2_4_1#56 <= 1
 0 <= y_1_2_4_2#57 <= 1
 0 <= y_1_2_5_1#58 <= 1
 0 <= y_1_2_5_2#59 <= 1
 0 <= y_2_1_1_1#60 <= 1
 0 <= y_2_1_1_2#61 <= 1
 0 <= y_2_1_2_1#62 <= 1
 0 <= y_2_1_2_2#63 <= 1
 0 <= y_2_1_3_1#64 <= 1
 0 <= y_2_1_3_2#65 <= 1
 0 <= y_2_1_4_1#66 <= 1
 0 <= y_2_1_4_2#67 <= 1
 0 <= y_2_1_5_1#68 <= 1
 0 <= y_2_1_5_2#69 <= 1
 0 <= y_2_2_1_1#70 <= 1
 0 <= y_2_2_1_2#71 <= 1
 0 <= y_2_2_2_1#72 <= 1
 0 <= y_2_2_2_2#73 <= 1
 0 <= y_2_2_3_1#74 <= 1
 0 <= y_2_2_3_2#75 <= 1
 0 <= y_2_2_4_1#76 <= 1
 0 <= y_2_2_4_2#77 <= 1
 0 <= y_2_2_5_1#78 <= 1
 0 <= y_2_2_5_2#79 <= 1
 0 <= z_1_1_1_1#80 <= 1
 0 <= z_1_1_1_2#81 <= 1
 0 <= z_1_1_2_1#82 <= 1
 0 <= z_1_1_2_2#83 <= 1
 0 <= z_1_1_3_1#84 <= 1
 0 <= z_1_1_3_2#85 <= 1
 0 <= z_1_1_4_1#86 <= 1
 0 <= z_1_1_4_2#87 <= 1
 0 <= z_1_1_5_1#88 <= 1
 0 <= z_1_1_5_2#89 <= 1
 0 <= z_1_2_1_1#90 <= 1
 0 <= z_1_2_1_2#91 <= 1
 0 <= z_1_2_2_1#92 <= 1
 0 <= z_1_2_2_2#93 <= 1
 0 <= z_1_2_3_1#94 <= 1
 0 <= z_1_2_3_2#95 <= 1
 0 <= z_1_2_4_1#96 <= 1
 0 <= z_1_2_4_2#97 <= 1
 0 <= z_1_2_5_1#98 <= 1
 0 <= z_1_2_5_2#99 <= 1
 0 <= z_2_1_1_1#100 <= 1
 0 <= z_2_1_1_2#101 <= 1
 0 <= z_2_1_2_1#102 <= 1
 0 <= z_2_1_2_2#103 <= 1
 0 <= z_2_1_3_1#104 <= 1
 0 <= z_2_1_3_2#105 <= 1
 0 <= z_2_1_4_1#106 <= 1
 0 <= z_2_1_4_2#107 <= 1
 0 <= z_2_1_5_1#108 <= 1
 0 <= z_2_1_5_2#109 <= 1
 0 <= z_2_2_1_1#110 <= 1
 0 <= z_2_2_1_2#111 <= 1
 0 <= z_2_2_2_1#112 <= 1
 0 <= z_2_2_2_2#113 <= 1
 0 <= z_2_2_3_1#114 <= 1
 0 <= z_2_2_3_2#115 <= 1
 0 <= z_2_2_4_1#116 <= 1
 0 <= z_2_2_4_2#117 <= 1
 0 <= z_2_2_5_1#118 <= 1
 0 <= z_2_2_5_2#119 <= 1
Binaries
 y_1_1_1_1#40  y_1_1_1_2#41  y_1_1_2_1#42  y_1_1_2_2#43  y_1_1_3_1#44 
 y_1_1_3_2#45  y_1_1_4_1#46  y_1_1_4_2#47  y_1_1_5_1#48  y_1_1_5_2#49 
 y_1_2_1_1#50  y_1_2_1_2#51  y_1_2_2_1#52  y_1_2_2_2#53  y_1_2_3_1#54 
 y_1_2_3_2#55  y_1_2_4_1#56  y_1_2_4_2#57  y_1_2_5_1#58  y_1_2_5_2#59 
 y_2_1_1_1#60  y_2_1_1_2#61  y_2_1_2_1#62  y_2_1_2_2#63  y_2_1_3_1#64 
 y_2_1_3_2#65  y_2_1_4_1#66  y_2_1_4_2#67  y_2_1_5_1#68  y_2_1_5_2#69 
 y_2_2_1_1#70  y_2_2_1_2#71  y_2_2_2_1#72  y_2_2_2_2#73  y_2_2_3_1#74 
 y_2_2_3_2#75  y_2_2_4_1#76  y_2_2_4_2#77  y_2_2_5_1#78  y_2_2_5_2#79 
 z_1_1_1_1#80  z_1_1_1_2#81  z_1_1_2_1#82  z_1_1_2_2#83  z_1_1_3_1#84 
 z_1_1_3_2#85  z_1_1_4_1#86  z_1_1_4_2#87  z_1_1_5_1#88  z_1_1_5_2#89 
 z_1_2_1_1#90  z_1_2_1_2#91  z_1_2_2_1#92  z_1_2_2_2#93  z_1_2_3_1#94 
 z_1_2_3_2#95  z_1_2_4_1#96  z_1_2_4_2#97  z_1_2_5_1#98  z_1_2_5_2#99 
 z_2_1_1_1#100  z_2_1_1_2#101  z_2_1_2_1#102  z_2_1_2_2#103  z_2_1_3_1#104 
 z_2_1_3_2#105  z_2_1_4_1#106  z_2_1_4_2#107  z_2_1_5_1#108  z_2_1_5_2#109 
 z_2_2_1_1#110  z_2_2_1_2#111  z_2_2_2_1#112  z_2_2_2_2#113  z_2_2_3_1#114 
 z_2_2_3_2#115  z_2_2_4_1#116  z_2_2_4_2#117  z_2_2_5_1#118  z_2_2_5_2#119 
End
